500
500
350
349
348
348
347
347
347
347
346
346
346
346
345
343
343
343
343
343
342
341
341
340
339
339
339
338
338
338
338
338
338
337
336
336
335
335
335
334
333
332
331
330
329
329
328
328
327
327
326
326
325
324
324
323
322
321
321
321
320
320
320
319
319
319
318
318
318
317
315
315
314
314
313
313
313
313
311
310
310
310
309
309
309
309
308
308
307
304
304
304
304
304
304
304
303
303
303
303
302
302
302
301
301
299
298
298
298
297
297
296
296
296
295
295
295
294
293
293
292
292
292
291
291
290
290
290
289
289
288
288
288
287
287
286
286
286
286
286
285
284
284
283
283
283
282
282
282
282
281
281
280
280
280
280
280
279
278
277
277
277
276
276
274
273
273
273
273
272
272
272
271
268
267
266
266
265
265
265
264
264
262
262
261
258
258
257
257
257
256
256
255
255
254
254
253
252
252
251
250
249
248
247
247
247
246
245
245
245
244
244
244
242
242
241
241
241
240
239
238
237
237
237
236
236
235
235
235
234
234
233
232
231
231
231
230
230
230
229
229
229
229
229
228
228
227
227
227
226
225
225
224
224
224
224
224
223
223
223
223
222
222
221
221
219
219
218
218
218
218
217
217
216
216
214
214
213
212
211
210
209
208
208
208
206
206
205
205
205
205
202
201
200
200
199
199
198
197
197
196
195
195
194
192
192
190
189
189
188
188
188
187
186
184
183
183
182
182
181
180
179
179
179
179
178
178
177
177
177
177
177
176
174
174
173
173
173
172
172
172
171
171
171
170
170
169
169
169
169
168
168
168
168
168
167
167
167
167
167
167
166
166
166
166
166
165
164
164
163
163
163
162
162
161
160
159
158
157
154
153
153
153
152
152
152
152
152
151
151
151
150
150
149
149
149
148
147
147
147
147
147
147
145
143
142
142
142
142
141
140
140
139
139
139
139
138
138
138
137
137
136
136
136
135
135
135
134
134
133
132
132
130
130
129
129
129
128
128
128
128
126
126
125
124
124
123
123
123
122
122
121
120
120
120
120
120
119
118
118
118
117
116
116
115
115
115
115
114
114
114
113
112
112
112
112
111
110
110
109
108
107
107
107
106
106
106
106
105
105
105
105
104
104
103
103
102
101
101
100
100
100
